45
1 0 4
2 0 3
2 1 3
3 0 2
3 1 3
3 2 4
4 0 9
4 1 1
4 2 1
4 3 6
5 0 2
5 1 6
5 2 5
5 3 3
5 4 5
6 0 3
6 1 1
6 2 7
6 3 5
6 4 3
6 5 10
7 0 9
7 1 10
7 2 9
7 3 3
7 4 8
7 5 1
7 6 6
8 0 9
8 1 7
8 2 6
8 3 1
8 4 2
8 5 3
8 6 3
8 7 9
9 0 7
9 1 7
9 2 2
9 3 5
9 4 6
9 5 5
9 6 10
9 7 3
9 8 7
10 0 10
10 1 6
10 2 1
10 3 9
10 4 6
10 5 6
10 6 7
10 7 5
10 8 6
10 9 7
11 0 5
11 1 8
11 2 9
11 3 7
11 4 1
11 5 4
11 6 1
11 7 3
11 8 5
11 9 1
11 10 7
12 0 6
12 1 5
12 2 9
12 3 7
12 4 2
12 5 5
12 6 9
12 7 1
12 8 9
12 9 6
12 10 7
12 11 4
13 0 6
13 1 5
13 2 8
13 3 5
13 4 7
13 5 1
13 6 4
13 7 7
13 8 4
13 9 1
13 10 2
13 11 3
13 12 5
14 0 8
14 1 1
14 2 10
14 3 4
14 4 9
14 5 3
14 6 1
14 7 1
14 8 8
14 9 4
14 10 2
14 11 6
14 12 10
14 13 5
15 0 5
15 1 4
15 2 9
15 3 4
15 4 5
15 5 2
15 6 6
15 7 10
15 8 8
15 9 9
15 10 3
15 11 8
15 12 10
15 13 4
15 14 1
16 0 7
16 1 2
16 2 7
16 3 3
16 4 4
16 5 8
16 6 9
16 7 1
16 8 4
16 9 6
16 10 2
16 11 10
16 12 8
16 13 10
16 14 10
16 15 9
17 0 9
17 1 6
17 2 8
17 3 5
17 4 7
17 5 8
17 6 4
17 7 3
17 8 9
17 9 1
17 10 3
17 11 7
17 12 7
17 13 3
17 14 4
17 15 10
17 16 3
18 0 10
18 1 5
18 2 7
18 3 6
18 4 4
18 5 7
18 6 8
18 7 3
18 8 2
18 9 6
18 10 5
18 11 8
18 12 5
18 13 2
18 14 10
18 15 4
18 16 4
18 17 9
19 0 6
19 1 6
19 2 5
19 3 1
19 4 7
19 5 8
19 6 5
19 7 3
19 8 8
19 9 8
19 10 10
19 11 4
19 12 6
19 13 9
19 14 1
19 15 2
19 16 2
19 17 1
19 18 1
20 0 6
20 1 8
20 2 5
20 3 8
20 4 4
20 5 1
20 6 4
20 7 1
20 8 3
20 9 1
20 10 7
20 11 1
20 12 6
20 13 5
20 14 9
20 15 2
20 16 6
20 17 9
20 18 7
20 19 5
21 0 5
21 1 10
21 2 1
21 3 7
21 4 3
21 5 5
21 6 2
21 7 3
21 8 5
21 9 1
21 10 6
21 11 6
21 12 4
21 13 2
21 14 2
21 15 2
21 16 3
21 17 6
21 18 8
21 19 2
21 20 10
22 0 5
22 1 8
22 2 3
22 3 9
22 4 6
22 5 7
22 6 7
22 7 5
22 8 5
22 9 1
22 10 3
22 11 10
22 12 4
22 13 8
22 14 10
22 15 6
22 16 1
22 17 5
22 18 7
22 19 2
22 20 1
22 21 3
23 0 9
23 1 1
23 2 7
23 3 5
23 4 7
23 5 1
23 6 5
23 7 10
23 8 5
23 9 4
23 10 1
23 11 4
23 12 10
23 13 8
23 14 7
23 15 10
23 16 7
23 17 10
23 18 7
23 19 10
23 20 7
23 21 7
23 22 8
24 0 4
24 1 1
24 2 10
24 3 3
24 4 2
24 5 3
24 6 9
24 7 3
24 8 7
24 9 6
24 10 3
24 11 4
24 12 4
24 13 8
24 14 3
24 15 2
24 16 6
24 17 2
24 18 8
24 19 2
24 20 6
24 21 2
24 22 10
24 23 2
25 0 4
25 1 10
25 2 9
25 3 1
25 4 4
25 5 8
25 6 9
25 7 3
25 8 1
25 9 3
25 10 10
25 11 4
25 12 3
25 13 5
25 14 6
25 15 3
25 16 3
25 17 3
25 18 8
25 19 2
25 20 3
25 21 7
25 22 6
25 23 4
25 24 2
26 0 1
26 1 10
26 2 1
26 3 6
26 4 4
26 5 3
26 6 3
26 7 10
26 8 1
26 9 1
26 10 5
26 11 1
26 12 7
26 13 5
26 14 2
26 15 7
26 16 10
26 17 9
26 18 1
26 19 2
26 20 9
26 21 6
26 22 6
26 23 2
26 24 3
26 25 5
27 0 9
27 1 5
27 2 1
27 3 10
27 4 9
27 5 3
27 6 4
27 7 2
27 8 10
27 9 3
27 10 2
27 11 8
27 12 7
27 13 6
27 14 6
27 15 2
27 16 4
27 17 6
27 18 7
27 19 8
27 20 1
27 21 10
27 22 10
27 23 8
27 24 6
27 25 7
27 26 8
28 0 9
28 1 7
28 2 8
28 3 1
28 4 7
28 5 6
28 6 4
28 7 8
28 8 10
28 9 2
28 10 8
28 11 6
28 12 8
28 13 10
28 14 2
28 15 4
28 16 8
28 17 5
28 18 8
28 19 1
28 20 3
28 21 6
28 22 10
28 23 6
28 24 8
28 25 3
28 26 5
28 27 4
29 0 10
29 1 7
29 2 10
29 3 3
29 4 9
29 5 10
29 6 5
29 7 4
29 8 3
29 9 3
29 10 6
29 11 4
29 12 5
29 13 4
29 14 6
29 15 10
29 16 6
29 17 7
29 18 7
29 19 1
29 20 1
29 21 6
29 22 5
29 23 8
29 24 7
29 25 2
29 26 3
29 27 8
29 28 8
30 0 5
30 1 5
30 2 1
30 3 1
30 4 2
30 5 8
30 6 3
30 7 10
30 8 2
30 9 2
30 10 4
30 11 7
30 12 5
30 13 6
30 14 9
30 15 3
30 16 2
30 17 5
30 18 1
30 19 10
30 20 1
30 21 9
30 22 7
30 23 3
30 24 6
30 25 2
30 26 9
30 27 2
30 28 6
30 29 2
31 0 4
31 1 8
31 2 7
31 3 8
31 4 6
31 5 8
31 6 8
31 7 8
31 8 7
31 9 5
31 10 4
31 11 1
31 12 7
31 13 1
31 14 4
31 15 8
31 16 4
31 17 1
31 18 4
31 19 6
31 20 9
31 21 2
31 22 7
31 23 4
31 24 6
31 25 7
31 26 2
31 27 5
31 28 10
31 29 2
31 30 1
32 0 9
32 1 6
32 2 3
32 3 4
32 4 5
32 5 4
32 6 9
32 7 5
32 8 6
32 9 7
32 10 10
32 11 4
32 12 2
32 13 8
32 14 10
32 15 6
32 16 10
32 17 7
32 18 7
32 19 7
32 20 2
32 21 6
32 22 1
32 23 8
32 24 6
32 25 5
32 26 7
32 27 1
32 28 7
32 29 7
32 30 1
32 31 6
33 0 6
33 1 4
33 2 8
33 3 7
33 4 8
33 5 10
33 6 5
33 7 3
33 8 8
33 9 8
33 10 2
33 11 4
33 12 3
33 13 10
33 14 6
33 15 8
33 16 9
33 17 10
33 18 8
33 19 3
33 20 3
33 21 5
33 22 9
33 23 5
33 24 7
33 25 4
33 26 6
33 27 3
33 28 4
33 29 1
33 30 9
33 31 8
33 32 9
34 0 1
34 1 9
34 2 9
34 3 10
34 4 4
34 5 6
34 6 10
34 7 4
34 8 10
34 9 5
34 10 8
34 11 2
34 12 5
34 13 7
34 14 7
34 15 9
34 16 6
34 17 1
34 18 7
34 19 3
34 20 3
34 21 8
34 22 1
34 23 5
34 24 2
34 25 4
34 26 3
34 27 4
34 28 1
34 29 2
34 30 7
34 31 2
34 32 5
34 33 4
35 0 5
35 1 2
35 2 8
35 3 4
35 4 8
35 5 7
35 6 9
35 7 6
35 8 7
35 9 6
35 10 9
35 11 4
35 12 9
35 13 8
35 14 4
35 15 1
35 16 8
35 17 4
35 18 9
35 19 5
35 20 10
35 21 3
35 22 1
35 23 10
35 24 2
35 25 1
35 26 1
35 27 4
35 28 5
35 29 7
35 30 9
35 31 3
35 32 1
35 33 7
35 34 8
36 0 4
36 1 9
36 2 7
36 3 2
36 4 3
36 5 6
36 6 9
36 7 10
36 8 6
36 9 6
36 10 3
36 11 7
36 12 6
36 13 4
36 14 7
36 15 3
36 16 2
36 17 9
36 18 5
36 19 7
36 20 3
36 21 7
36 22 4
36 23 6
36 24 7
36 25 8
36 26 9
36 27 1
36 28 3
36 29 8
36 30 10
36 31 10
36 32 9
36 33 1
36 34 10
36 35 2
37 0 10
37 1 3
37 2 5
37 3 2
37 4 6
37 5 4
37 6 8
37 7 10
37 8 8
37 9 1
37 10 8
37 11 7
37 12 6
37 13 1
37 14 5
37 15 1
37 16 9
37 17 8
37 18 9
37 19 2
37 20 7
37 21 7
37 22 2
37 23 10
37 24 7
37 25 6
37 26 2
37 27 8
37 28 5
37 29 7
37 30 2
37 31 6
37 32 6
37 33 9
37 34 8
37 35 4
37 36 10
38 0 4
38 1 10
38 2 1
38 3 2
38 4 6
38 5 1
38 6 9
38 7 5
38 8 5
38 9 9
38 10 3
38 11 2
38 12 9
38 13 4
38 14 5
38 15 8
38 16 9
38 17 8
38 18 3
38 19 7
38 20 9
38 21 7
38 22 5
38 23 6
38 24 9
38 25 9
38 26 2
38 27 9
38 28 5
38 29 5
38 30 4
38 31 3
38 32 8
38 33 5
38 34 5
38 35 3
38 36 7
38 37 6
39 0 2
39 1 6
39 2 10
39 3 8
39 4 9
39 5 7
39 6 4
39 7 4
39 8 7
39 9 1
39 10 3
39 11 10
39 12 10
39 13 2
39 14 10
39 15 10
39 16 6
39 17 3
39 18 7
39 19 8
39 20 5
39 21 2
39 22 6
39 23 6
39 24 1
39 25 1
39 26 3
39 27 6
39 28 5
39 29 9
39 30 6
39 31 8
39 32 7
39 33 5
39 34 4
39 35 5
39 36 7
39 37 2
39 38 5
40 0 9
40 1 5
40 2 3
40 3 6
40 4 10
40 5 3
40 6 8
40 7 9
40 8 2
40 9 10
40 10 8
40 11 10
40 12 2
40 13 4
40 14 2
40 15 10
40 16 10
40 17 2
40 18 6
40 19 2
40 20 8
40 21 1
40 22 4
40 23 9
40 24 1
40 25 3
40 26 5
40 27 4
40 28 4
40 29 7
40 30 8
40 31 3
40 32 2
40 33 3
40 34 7
40 35 6
40 36 9
40 37 10
40 38 6
40 39 1
41 0 6
41 1 2
41 2 1
41 3 3
41 4 6
41 5 5
41 6 8
41 7 3
41 8 9
41 9 10
41 10 6
41 11 6
41 12 6
41 13 4
41 14 8
41 15 10
41 16 5
41 17 10
41 18 10
41 19 4
41 20 3
41 21 1
41 22 2
41 23 2
41 24 2
41 25 3
41 26 3
41 27 6
41 28 7
41 29 4
41 30 10
41 31 7
41 32 6
41 33 10
41 34 2
41 35 2
41 36 5
41 37 6
41 38 2
41 39 7
41 40 6
42 0 2
42 1 2
42 2 3
42 3 1
42 4 9
42 5 6
42 6 9
42 7 4
42 8 2
42 9 3
42 10 10
42 11 6
42 12 7
42 13 6
42 14 9
42 15 4
42 16 8
42 17 5
42 18 3
42 19 7
42 20 7
42 21 4
42 22 8
42 23 1
42 24 4
42 25 5
42 26 8
42 27 9
42 28 4
42 29 9
42 30 6
42 31 3
42 32 8
42 33 8
42 34 5
42 35 4
42 36 2
42 37 6
42 38 8
42 39 10
42 40 5
42 41 3
43 0 5
43 1 1
43 2 9
43 3 5
43 4 6
43 5 4
43 6 2
43 7 6
43 8 2
43 9 3
43 10 9
43 11 2
43 12 6
43 13 5
43 14 1
43 15 1
43 16 10
43 17 10
43 18 6
43 19 6
43 20 10
43 21 7
43 22 8
43 23 5
43 24 4
43 25 8
43 26 5
43 27 6
43 28 8
43 29 3
43 30 1
43 31 9
43 32 8
43 33 6
43 34 10
43 35 9
43 36 3
43 37 4
43 38 3
43 39 4
43 40 3
43 41 5
43 42 2
44 0 7
44 1 5
44 2 9
44 3 9
44 4 8
44 5 7
44 6 1
44 7 8
44 8 2
44 9 7
44 10 4
44 11 1
44 12 9
44 13 7
44 14 9
44 15 9
44 16 5
44 17 6
44 18 3
44 19 8
44 20 9
44 21 10
44 22 9
44 23 1
44 24 3
44 25 7
44 26 2
44 27 3
44 28 1
44 29 9
44 30 10
44 31 1
44 32 3
44 33 9
44 34 1
44 35 2
44 36 4
44 37 4
44 38 8
44 39 7
44 40 1
44 41 4
44 42 8
44 43 7
